data/CVRPLIB/Vrp-Set-XML100/instances/XML100_2115_02.vrp
NAME : XML100_2115_02
COMMENT : Generated by Queiroga, Sadykov, Uchoa, and Vidal (2021)
TYPE : CVRP
DIMENSION : 101
EDGE_WEIGHT_TYPE : EUC_2D
CAPACITY : 23
NODE_COORD_SECTION
1    500  500 
2    839  67  
3    919  805 
4    616  726 
5    958  83  
6    543  8   
7    975  130 
8    936  673 
9    439  392 
10   89   249 
11   389  25  
12   866  808 
13   803  7   
14   441  732 
15   957  923 
16   358  745 
17   525  385 
18   918  218 
19   481  590 
20   544  139 
21   265  6   
22   434  981 
23   260  704 
24   12   322 
25   958  373 
26   490  807 
27   235  142 
28   596  591 
29   122  262 
30   999  119 
31   190  333 
32   772  381 
33   353  793 
34   891  722 
35   134  255 
36   879  604 
37   343  910 
38   485  673 
39   743  308 
40   561  837 
41   975  471 
42   942  851 
43   202  486 
44   120  730 
45   431  228 
46   861  420 
47   809  582 
48   197  240 
49   27   31  
50   131  538 
51   33   94  
52   299  882 
53   120  639 
54   501  764 
55   927  965 
56   47   508 
57   920  215 
58   466  108 
59   55   884 
60   373  112 
61   25   220 
62   336  56  
63   241  704 
64   857  843 
65   978  644 
66   684  536 
67   971  346 
68   456  690 
69   915  144 
70   240  94  
71   316  532 
72   751  261 
73   86   405 
74   575  961 
75   149  474 
76   531  465 
77   989  540 
78   436  573 
79   109  7   
80   344  386 
81   963  358 
82   209  397 
83   801  363 
84   648  619 
85   360  908 
86   673  238 
87   541  705 
88   141  925 
89   693  843 
90   518  241 
91   231  980 
92   924  517 
93   99   586 
94   53   292 
95   347  510 
96   398  519 
97   505  250 
98   82   349 
99   658  289 
100  915  158 
101  415  673 
DEMAND_SECTION
1    0   
2    1   
3    1   
4    1   
5    1   
6    1   
7    1   
8    1   
9    1   
10   1   
11   1   
12   1   
13   1   
14   1   
15   1   
16   1   
17   1   
18   1   
19   1   
20   1   
21   1   
22   1   
23   1   
24   1   
25   1   
26   1   
27   1   
28   1   
29   1   
30   1   
31   1   
32   1   
33   1   
34   1   
35   1   
36   1   
37   1   
38   1   
39   1   
40   1   
41   1   
42   1   
43   1   
44   1   
45   1   
46   1   
47   1   
48   1   
49   1   
50   1   
51   1   
52   1   
53   1   
54   1   
55   1   
56   1   
57   1   
58   1   
59   1   
60   1   
61   1   
62   1   
63   1   
64   1   
65   1   
66   1   
67   1   
68   1   
69   1   
70   1   
71   1   
72   1   
73   1   
74   1   
75   1   
76   1   
77   1   
78   1   
79   1   
80   1   
81   1   
82   1   
83   1   
84   1   
85   1   
86   1   
87   1   
88   1   
89   1   
90   1   
91   1   
92   1   
93   1   
94   1   
95   1   
96   1   
97   1   
98   1   
99   1   
100  1   
101  1   
DEPOT_SECTION
1
-1
EOF
