data/CVRPLIB/Vrp-Set-XML100/solutions/XML100_2115_02.sol
Route #1: 95 94 70 42 74 49 55 92 52 43 58 87 90 51 36 84 21 73 39 25 53 86
Route #2: 75 98 85 71 38 31 82 45 40 76 64 7 33 2 41 14 54 63 11 88 3 83 27
Route #3: 77 100 22 62 32 15 13 67 37 18
Route #4: 8 44 59 10 61 20 69 26 78 48 50 60 23 72 97 93 9 28 34 47 30 81 79
Route #5: 65 46 35 91 24 80 66 17 56 99 68 6 29 4 1 12 5 57 19 89 96 16
Cost 9427
